9	19	1	18	1	7	12	5	16	4	11	9	14	8	15	19	9	6	16	7
17	9	2	19	2	18	5	11	6	15	10	7	3	14	3	2	3	8	11	11
20	4	19	18	1	12	9	12	20	17	7	12	2	11	17	12	15	20	9	3
18	1	10	11	2	12	7	2	9	7	9	10	11	7	20	18	18	17	16	12
